GLPSOL--GLPK LP/MIP Solver 5.0
Parameter(s) specified in the command line:
 --lp ./Instances/small/optimizedinstance42.lp -o ./Instances/small/solutions/optimizedinstance42.out
 --log ./Instances/small/solutions/optimizedinstance42.glplog
Reading problem data from './Instances/small/optimizedinstance42.lp'...
371 rows, 375 columns, 38066 non-zeros
375 integer variables, all of which are binary
751 lines were read
GLPK Integer Optimizer 5.0
371 rows, 375 columns, 38066 non-zeros
375 integer variables, all of which are binary
Preprocessing...
371 rows, 375 columns, 38066 non-zeros
375 integer variables, all of which are binary
Scaling...
 A: min|aij| =  1.000e+00  max|aij| =  2.420e+02  ratio =  2.420e+02
GM: min|aij| =  6.489e-02  max|aij| =  1.541e+01  ratio =  2.375e+02
EQ: min|aij| =  4.225e-03  max|aij| =  1.000e+00  ratio =  2.367e+02
2N: min|aij| =  3.906e-03  max|aij| =  1.500e+00  ratio =  3.840e+02
Constructing initial basis...
Size of triangular part is 371
Solving LP relaxation...
GLPK Simplex Optimizer 5.0
371 rows, 375 columns, 38066 non-zeros
*     0: obj =  -0.000000000e+00 inf =   0.000e+00 (375)
*   310: obj =   2.258672866e+03 inf =   0.000e+00 (0) 1
OPTIMAL LP SOLUTION FOUND
Integer optimization begins...
Long-step dual simplex will be used
+   310: mip =     not found yet <=              +inf        (1; 0)
+   710: >>>>>   7.800000000e+01 <=   2.211000000e+03        (87; 0)
+  1061: >>>>>   8.600000000e+01 <=   2.200000000e+03        (119; 3)
+  2713: mip =   8.600000000e+01 <=   2.190000000e+03        (424; 12)
+  3906: mip =   8.600000000e+01 <=   2.186000000e+03        (693; 15)
+  4446: >>>>>   8.700000000e+01 <=   2.183000000e+03        (823; 16)
+  6077: mip =   8.700000000e+01 <=   2.162000000e+03        (1067; 23)
+  7296: mip =   8.700000000e+01 <=   2.143000000e+03        (1329; 26)
+  8510: mip =   8.700000000e+01 <=   2.138000000e+03        (1620; 29)
+ 10240: mip =   8.700000000e+01 <=   2.121000000e+03        (1903; 34)
+ 11602: mip =   8.700000000e+01 <=   2.090000000e+03        (2174; 38)
+ 13314: mip =   8.700000000e+01 <=   2.053000000e+03        (2468; 43)
+ 14801: mip =   8.700000000e+01 <=   2.032000000e+03        (2759; 47)
+ 16401: mip =   8.700000000e+01 <=   2.016000000e+03        (3029; 52)
+ 18070: mip =   8.700000000e+01 <=   2.002000000e+03        (3337; 57)
Time used: 60.0 secs.  Memory used: 8.6 Mb.
+ 19729: mip =   8.700000000e+01 <=   1.957000000e+03        (3596; 62)
+ 21078: mip =   8.700000000e+01 <=   1.946000000e+03        (3881; 66)
+ 22136: >>>>>   8.900000000e+01 <=   1.932000000e+03        (4082; 69)
+ 23873: mip =   8.900000000e+01 <=   1.898000000e+03        (4376; 95)
+ 25155: mip =   8.900000000e+01 <=   1.869000000e+03        (4682; 99)
+ 26463: mip =   8.900000000e+01 <=   1.827000000e+03        (4969; 103)
+ 28018: mip =   8.900000000e+01 <=   1.803000000e+03        (5305; 108)
+ 28961: >>>>>   9.000000000e+01 <=   1.785000000e+03        (5509; 111)
+ 31075: mip =   9.000000000e+01 <=   1.743000000e+03        (5788; 149)
+ 32307: mip =   9.000000000e+01 <=   1.734000000e+03        (6078; 153)
+ 34101: mip =   9.000000000e+01 <=   1.682000000e+03        (6374; 159)
+ 36293: mip =   9.000000000e+01 <=   1.655000000e+03        (6734; 168)
Time used: 120.0 secs.  Memory used: 11.5 Mb.
+ 37843: mip =   9.000000000e+01 <=   1.630000000e+03        (7050; 174)
+ 39674: mip =   9.000000000e+01 <=   1.607000000e+03        (7374; 181)
+ 41312: mip =   9.000000000e+01 <=   1.594000000e+03        (7738; 188)
+ 42717: mip =   9.000000000e+01 <=   1.578000000e+03        (8083; 194)
+ 44136: mip =   9.000000000e+01 <=   1.567000000e+03        (8431; 200)
+ 45635: mip =   9.000000000e+01 <=   1.558000000e+03        (8775; 207)
+ 47254: mip =   9.000000000e+01 <=   1.543000000e+03        (9178; 215)
+ 49239: mip =   9.000000000e+01 <=   1.526000000e+03        (9535; 223)
+ 50941: mip =   9.000000000e+01 <=   1.507000000e+03        (9901; 231)
+ 52468: mip =   9.000000000e+01 <=   1.500000000e+03        (10275; 238)
+ 54323: mip =   9.000000000e+01 <=   1.479000000e+03        (10646; 247)
+ 55991: mip =   9.000000000e+01 <=   1.466000000e+03        (11012; 255)
Time used: 180.1 secs.  Memory used: 14.9 Mb.
+ 57646: mip =   9.000000000e+01 <=   1.455000000e+03        (11376; 263)
+ 59258: mip =   9.000000000e+01 <=   1.442000000e+03        (11783; 271)
+ 61174: mip =   9.000000000e+01 <=   1.430000000e+03        (12201; 281)
+ 63297: mip =   9.000000000e+01 <=   1.418000000e+03        (12609; 292)
+ 65056: mip =   9.000000000e+01 <=   1.409000000e+03        (13012; 301)
+ 66723: mip =   9.000000000e+01 <=   1.401000000e+03        (13378; 309)
+ 68455: mip =   9.000000000e+01 <=   1.393000000e+03        (13792; 318)
+ 68889: >>>>>   9.400000000e+01 <=   1.387000000e+03        (13944; 320)
+ 70554: mip =   9.400000000e+01 <=   1.380000000e+03        (14196; 542)
+ 72090: mip =   9.400000000e+01 <=   1.372000000e+03        (14601; 550)
+ 73933: mip =   9.400000000e+01 <=   1.360000000e+03        (15014; 560)
+ 75627: mip =   9.400000000e+01 <=   1.350000000e+03        (15408; 569)
+ 77307: mip =   9.400000000e+01 <=   1.346000000e+03        (15817; 578)
Time used: 240.1 secs.  Memory used: 18.2 Mb.
+ 78563: mip =   9.400000000e+01 <=   1.339000000e+03        (16212; 585)
+ 80026: mip =   9.400000000e+01 <=   1.336000000e+03        (16632; 593)
+ 81810: mip =   9.400000000e+01 <=   1.328000000e+03        (17051; 603)
+ 82941: mip =   9.400000000e+01 <=   1.323000000e+03        (17404; 609)
+ 84847: mip =   9.400000000e+01 <=   1.316000000e+03        (17850; 620)
+ 86203: mip =   9.400000000e+01 <=   1.313000000e+03        (18232; 627)
+ 88175: mip =   9.400000000e+01 <=   1.303000000e+03        (18623; 638)
+ 89607: mip =   9.400000000e+01 <=   1.300000000e+03        (19057; 647)
+ 91458: mip =   9.400000000e+01 <=   1.295000000e+03        (19452; 657)
+ 93043: mip =   9.400000000e+01 <=   1.289000000e+03        (19885; 666)
+ 95135: mip =   9.400000000e+01 <=   1.281000000e+03        (20299; 678)
+ 96983: mip =   9.400000000e+01 <=   1.277000000e+03        (20720; 689)
Time used: 300.1 secs.  Memory used: 22.1 Mb.
+ 98563: mip =   9.400000000e+01 <=   1.275000000e+03        (21134; 698)
+100493: mip =   9.400000000e+01 <=   1.272000000e+03        (21567; 709)
+102175: mip =   9.400000000e+01 <=   1.268000000e+03        (21992; 719)
+103717: mip =   9.400000000e+01 <=   1.266000000e+03        (22381; 728)
+105340: mip =   9.400000000e+01 <=   1.264000000e+03        (22802; 737)
+107007: mip =   9.400000000e+01 <=   1.262000000e+03        (23226; 747)
+109054: mip =   9.400000000e+01 <=   1.259000000e+03        (23644; 759)
+110856: mip =   9.400000000e+01 <=   1.257000000e+03        (24094; 770)
+112447: mip =   9.400000000e+01 <=   1.255000000e+03        (24554; 780)
+114210: mip =   9.400000000e+01 <=   1.252000000e+03        (24958; 790)
+116034: mip =   9.400000000e+01 <=   1.250000000e+03        (25388; 801)
+117568: mip =   9.400000000e+01 <=   1.248000000e+03        (25816; 810)
Time used: 360.1 secs.  Memory used: 25.4 Mb.
+119598: mip =   9.400000000e+01 <=   1.245000000e+03        (26267; 823)
+121642: mip =   9.400000000e+01 <=   1.243000000e+03        (26669; 836)
